ssat_solver_solve2
#level: 2
Abc_NtkNodeNum(s->pNtk): 981  , BDD limit: 10240
level 1: 20 element
Exist
existence_eliminate_scope
Abc_NtkIsBddLogic(pNtk): 0
Abc_NtkIsStrash(pNtk): 1
existence_eliminate_scope_aig
exist by BDD failed
Abc_NtkNodeNum(s->pNtk): 27920140  , BDD limit: 33504168
Build BDD success
level 0: 20 element
Random
c ssat solving in ABC
#var: 40
s SATISFIABLE
  > Upper bound = 7.086020e-01
  > Lower bound = 7.086020e-01
FINISHED CPU 1863.38 MEM 0 MAXMEM 5318376 STALE 0 MAXMEM_RSS 4974760
<time name="ALL">1863480</time>
real 1863.68
user 2162.79
sys 801.04
